6

0   2   11   6   4   2
2   0   21   19   25   12
11   21   0   2   22   0
6   19   2   0   18   8
4   25   22   18   0   12
2   12   0   8   12   0

0   19   49   32   11   20
19   0   68   13   30   25
49   68   0   81   38   55
32   13   81   0   43   26
11   30   38   43   0   17
20   25   55   26   17   0